NAME: Random_75_4
ELLAPSED_TIME_(ms): 1
TOUR_SIZE: 2240.905
TOUR_SECTION
0
21
52
18
45
9
23
25
12
67
62
4
39
44
28
17
51
7
68
60
5
3
30
42
37
24
66
35
41
48
54
15
58
19
55
16
53
47
1
20
38
63
29
61
72
64
11
69
27
26
6
34
31
10
70
56
14
49
50
2
22
13
46
36
32
73
74
57
8
43
65
40
59
33
71
0
EOF
